NAME          
ROWS
 N  OBJ
 L  c1
 L  c2
 L  c3
COLUMNS
    MARKER    'MARKER'                 'INTORG'
    x[1]      c1        873
    x[1]      c2        49
    x[1]      c3        42
    x[1]      OBJ       -925
    x[2]      c1        943
    x[2]      c2        174
    x[2]      c3        604
    x[2]      OBJ       -585
    x[3]      c1        136
    x[3]      c2        921
    x[3]      c3        913
    x[3]      OBJ       -273
    x[4]      c1        510
    x[4]      c2        833
    x[4]      c3        764
    x[4]      OBJ       -388
    x[5]      c1        324
    x[5]      c2        849
    x[5]      c3        648
    x[5]      OBJ       -482
    x[6]      c1        217
    x[6]      c2        991
    x[6]      c3        554
    x[6]      OBJ       -992
    x[7]      c1        766
    x[7]      c2        421
    x[7]      c3        254
    x[7]      OBJ       -872
    x[8]      c1        136
    x[8]      c2        90
    x[8]      c3        782
    x[8]      OBJ       -954
    x[9]      c1        948
    x[9]      c2        591
    x[9]      c3        873
    x[9]      OBJ       -704
    x[10]     c1        171
    x[10]     c2        313
    x[10]     c3        538
    x[10]     OBJ       -986
    x[11]     c1        433
    x[11]     c2        156
    x[11]     c3        871
    x[11]     OBJ       -566
    x[12]     c1        189
    x[12]     c2        578
    x[12]     c3        392
    x[12]     OBJ       -436
    x[13]     c1        485
    x[13]     c2        876
    x[13]     c3        806
    x[13]     OBJ       -347
    x[14]     c1        753
    x[14]     c2        84
    x[14]     c3        550
    x[14]     OBJ       -275
    x[15]     c1        371
    x[15]     c2        572
    x[15]     c3        598
    x[15]     OBJ       -522
RHS
    rhs       c1        3628
    rhs       c2        3749
    rhs       c3        4594
RANGES
BOUNDS
 BV bounds    x[1]
 BV bounds    x[2]
 BV bounds    x[3]
 BV bounds    x[4]
 BV bounds    x[5]
 BV bounds    x[6]
 BV bounds    x[7]
 BV bounds    x[8]
 BV bounds    x[9]
 BV bounds    x[10]
 BV bounds    x[11]
 BV bounds    x[12]
 BV bounds    x[13]
 BV bounds    x[14]
 BV bounds    x[15]
ENDATA
